<number of tasks>
20

<cycle time>
1000

<order strength>
0,521


<task times>
1 611
2 303
3 244
4 80
5 171
6 231
7 372
8 24
9 96
10 283
11 80
12 275
13 210
14 526
15 375
16 72
17 37
18 54
19 59
20 372

<precedence relations>
1,8
1,16
2,6
3,5
3,7
4,7
5,15
6,8
7,9
7,10
8,12
9,12
9,16
10,11
10,13
12,14
12,15
12,20
13,16
14,18
15,17
15,19
16,20

<end>
